Route #1:
Route #2: 5 10
Route #3: 30
Route #4: 14 7 20
Route #5: 3 11 8 4 17 16
Route #6: 24
Route #7: 12 25 18 27
Route #8: 6 9
Route #9: 29 2 28
Route #10: 13
Route #11: 15 22 31 19 1
Route #12: 23 21 26

Cost: 2013.9958013443472
